% Solution

% grid = 
% [| 8, 1, 2, 7, 9, 3, 4, 6, 5
%  | 6, 4, 3, 2, 8, 5, 9, 7, 1
%  | 7, 5, 9, 1, 4, 6, 2, 8, 3
%  | 3, 6, 1, 4, 5, 7, 8, 9, 2
%  | 5, 7, 8, 9, 6, 2, 3, 1, 4
%  | 9, 2, 4, 3, 1, 8, 6, 5, 7
%  | 2, 9, 6, 5, 3, 1, 7, 4, 8
%  | 1, 8, 7, 6, 2, 4, 5, 3, 9
%  | 4, 3, 5, 8, 7, 9, 1, 2, 6
%  |];

%%%%%%%%%% Sudoku parameters %%%%%%%%%%
size = 9;

clue = [| 0, 0, 0,   0, 0, 0,   0, 0, 0
        | 0, 0, 0,   0, 0, 0,   0, 0, 0
        | 0, 0, 0,   0, 0, 0,   0, 0, 0

        | 0, 0, 0,   0, 0, 0,   0, 0, 0
        | 0, 0, 0,   0, 0, 0,   0, 0, 0
        | 0, 0, 0,   0, 0, 0,   0, 0, 0

        | 0, 0, 0,   0, 0, 0,   0, 0, 0
        | 0, 0, 0,   0, 0, 0,   0, 0, 0
        | 0, 0, 0,   0, 0, 0,   0, 0, 0
        |];

%%%%%%%%%% Killer parameters %%%%%%%%%%

cage_count = 0;
cage_max_length = 0;

cage_totals = [];

cage_cells =  [];

%%%%%%%%%% Thermometer parameters %%%%%%%%%%

thermo_count = 6;
thermo_max_length = 9;

thermo_cells = [| (r: 1, c: 6), (r: 1, c: 7), (r: 1, c: 8), (r: 2, c: 8), (r: 3, c: 8), (r: 4, c: 8), (r:<>, c:<>), (r:<>, c:<>), (r:<>, c:<>)
                | (r: 2, c: 6), (r: 3, c: 6), (r: 4, c: 6), (r: 4, c: 7), (r:<>, c:<>), (r:<>, c:<>), (r:<>, c:<>), (r:<>, c:<>), (r:<>, c:<>)
                | (r: 3, c: 4), (r: 2, c: 4), (r: 2, c: 3), (r: 2, c: 2), (r: 3, c: 2), (r: 4, c: 2), (r: 5, c: 2), (r: 5, c: 3), (r: 5, c: 4)
                | (r: 6, c: 4), (r: 7, c: 4), (r: 8, c: 4), (r: 8, c: 3), (r: 8, c: 2), (r: 7, c: 2), (r:<>, c:<>), (r:<>, c:<>), (r:<>, c:<>)
                | (r: 7, c: 6), (r: 8, c: 6), (r: 9, c: 6), (r:<>, c:<>), (r:<>, c:<>), (r:<>, c:<>), (r:<>, c:<>), (r:<>, c:<>), (r:<>, c:<>)
                | (r: 9, c: 7), (r: 9, c: 8), (r: 8, c: 8), (r: 7, c: 8), (r: 6, c: 8), (r: 6, c: 7), (r: 6, c: 6), (r:<>, c:<>), (r:<>, c:<>)
                |];

GW_count = 0;
GW_max_length = 0;

GW_cells = [];

%%%%%%%% Partial Kropki parameters %%%%%%%%%

krp_count_white = 0;
krp_cells_white = [];

krp_count_black = 0;
krp_cells_black = [];

%%%%%%%% Full Kropki constraints %%%%%%%%%

full_kropki = false;
